(set-logic QF_S)
(declare-fun var0 () String)
(assert (str.in.re var0 (re.++ (re.union (re.* (str.to.re "0")) (re.* (str.to.re "11"))) (re.++ (re.* (re.+ (str.to.re "222"))) (re.++ (re.+ (re.+ (str.to.re "333"))) (re.++ (re.* (re.union (str.to.re "444") (str.to.re "55"))) (re.++ (re.+ (re.+ (str.to.re "66"))) (re.++ (re.union (re.union (str.to.re "7") (str.to.re "88")) (re.union (str.to.re "9") (str.to.re "aaa"))) (re.++ (re.+ (re.* (str.to.re "bbb"))) (re.++ (re.+ (re.+ (str.to.re "c"))) (re.++ (re.union (re.union (str.to.re "ddd") (str.to.re "e")) (re.union (str.to.re "fff") (str.to.re "g"))) (re.++ (re.* (re.union (str.to.re "hhh") (str.to.re "iii"))) (re.++ (re.union (re.* (str.to.re "jj")) (re.* (str.to.re "kkk"))) (re.++ (re.+ (re.* (str.to.re "l"))) (re.++ (re.union (re.+ (str.to.re "mm")) (re.+ (str.to.re "nn"))) (re.++ (re.+ (re.* (str.to.re "o"))) (re.++ (re.* (re.* (str.to.re "p"))) (re.++ (re.* (re.+ (str.to.re "qqq"))) (re.++ (re.* (re.* (str.to.re "rrr"))) (re.++ (re.+ (re.union (str.to.re "sss") (str.to.re "t"))) (re.++ (re.+ (re.union (str.to.re "uuu") (str.to.re "v"))) (re.++ (re.union (re.union (str.to.re "w") (str.to.re "xxx")) (re.union (str.to.re "y") (str.to.re "zz"))) (re.++ (re.* (re.union (str.to.re "A") (str.to.re "BBB"))) (re.++ (re.union (re.union (str.to.re "CC") (str.to.re "D")) (re.union (str.to.re "E") (str.to.re "FF"))) (re.++ (re.+ (re.+ (str.to.re "GGG"))) (re.++ (re.union (re.* (str.to.re "H")) (re.* (str.to.re "II"))) (re.++ (re.* (re.+ (str.to.re "JJJ"))) (re.++ (re.* (re.union (str.to.re "K") (str.to.re "LL"))) (re.++ (re.+ (re.+ (str.to.re "MMM"))) (re.++ (re.+ (re.* (str.to.re "N"))) (re.++ (re.union (re.union (str.to.re "OOO") (str.to.re "P")) (re.union (str.to.re "QQ") (str.to.re "R"))) (re.++ (re.* (re.union (str.to.re "SSS") (str.to.re "TT"))) (re.++ (re.* (re.+ (str.to.re "U"))) (re.++ (re.union (re.union (str.to.re "VV") (str.to.re "W")) (re.union (str.to.re "X") (str.to.re "Y"))) (re.++ (re.* (re.+ (str.to.re "ZZZ"))) (re.++ (re.union (re.* (str.to.re "!!!")) (re.* (str.to.re """"""))) (re.++ (re.union (re.union (str.to.re "#") (str.to.re "$$")) (re.union (str.to.re "%%%") (str.to.re "&&"))) (re.++ (re.+ (re.* (str.to.re "''"))) (re.++ (re.* (re.+ (str.to.re "(("))) (re.++ (re.+ (re.+ (str.to.re ")"))) (re.++ (re.+ (re.* (str.to.re "*"))) (re.++ (re.* (re.union (str.to.re "+") (str.to.re ","))) (re.++ (re.+ (re.union (str.to.re "---") (str.to.re "."))) (re.++ (re.union (re.* (str.to.re "//")) (re.* (str.to.re ":"))) (re.++ (re.union (re.union (str.to.re ";") (str.to.re "<<")) (re.union (str.to.re "=") (str.to.re ">>>"))) (re.++ (re.* (re.union (str.to.re "???") (str.to.re "@@@"))) (re.++ (re.union (re.* (str.to.re "[[")) (re.* (str.to.re "\\\\\\"))) (re.++ (re.* (re.+ (str.to.re "]]"))) (re.++ (re.+ (re.+ (str.to.re "^^^"))) (re.++ (re.union (re.* (str.to.re "___")) (re.* (str.to.re "`"))) (re.++ (re.union (re.* (str.to.re "{{{")) (re.* (str.to.re "|"))) (re.++ (re.* (re.union (str.to.re "}}") (str.to.re "~~~"))) (re.++ (re.* (re.union (str.to.re "00") (str.to.re "11"))) (re.++ (re.* (re.* (str.to.re "22"))) (re.++ (re.+ (re.+ (str.to.re "33"))) (re.++ (re.union (re.+ (str.to.re "444")) (re.+ (str.to.re "5"))) (re.++ (re.* (re.* (str.to.re "666"))) (re.++ (re.* (re.* (str.to.re "777"))) (re.* (re.union (str.to.re "8") (str.to.re "99")))))))))))))))))))))))))))))))))))))))))))))))))))))))))))))
(check-sat)